unsat
(:max-memory          18.00
 :memory              17.90
 :nlsat-conflicts     2
 :nlsat-learned-added 1
 :nlsat-propagations  7
 :nlsat-stages        2
 :num-allocs          4811
 :rlimit-count        451
 :time                0.00
 :total-time          0.01)
